p edge 30 46 5
v 12 2 4 5 7 8 9 10 11 14 20 23 24
v 7 6 13 17 19 21 22 29
v 5 1 12 27 28 30
v 4 3 15 16 26
v 2 18 25
e 1 9
e 2 3
e 2 16
e 3 14
e 3 16
e 3 23
e 3 25
e 4 6
e 4 7
e 4 10
e 4 11
e 4 12
e 5 23
e 5 27
e 5 28
e 6 10
e 6 13
e 6 27
e 6 30
e 7 25
e 7 26
e 7 27
e 8 13
e 8 14
e 8 30
e 9 23
e 9 26
e 10 24
e 12 14
e 12 15
e 12 17
e 12 18
e 12 20
e 12 23
e 12 25
e 13 23
e 13 29
e 14 18
e 14 25
e 16 18
e 17 18
e 17 28
e 18 24
e 18 27
e 18 30
e 21 24
